p cnf 18 51
2 12 13 -3 0
-2 3 0
-2 -13 0
-2 -12 0
3 14 -15 16 17 0
-3 15 0
-3 -17 0
-3 -14 0
-3 -16 0
4 -12 13 -3 0
-4 12 0
-4 -13 0
-4 3 0
5 12 -13 -3 0
-5 3 0
-5 13 0
-5 -12 0
6 -12 -13 -3 0
-6 12 0
-6 13 0
-6 3 0
7 12 13 -8 0
-7 8 0
-7 -13 0
-7 -12 0
8 -14 -15 16 17 0
-8 15 0
-8 -17 0
-8 14 0
-8 -16 0
9 -12 13 -8 0
-9 12 0
-9 -13 0
-9 8 0
10 12 -13 -8 0
-10 8 0
-10 13 0
-10 -12 0
11 -12 -13 -8 0
-11 12 0
-11 13 0
-11 8 0
-18 0
-2 0
-4 0
-5 0
-6 0
-7 0
-9 0
-10 0
-11 0

